0 0 0 0
0 1 0 0
0 2 0 0
0 3 1 0
0 4 0 3
0 5 0 1
0 6 0 5
0 7 0 1
0 8 0 6
0 9 0 1
0 10 0 5
0 11 0 5
0 12 0 4
0 13 0 7
0 14 0 6
0 15 0 7
0 16 0 3
0 17 0 6
0 18 1 6
0 19 0 12
0 20 0 17
0 21 1 10
0 22 0 9
0 23 0 14
0 24 0 7
0 25 0 17
0 26 0 18
0 27 0 17
0 28 2 20
0 29 0 20
0 30 0 21
0 31 0 24
